c SAT: [1, -2, 3, 4, -5] OR [1, -2, -3, 4, 5] OR [1, -2, 3, 4, 5]
c after unit_propagation: (x3 v x5)
c source: https://igm.univ-mlv.fr/~thapper/teaching/mmpo/2019/06-slides.pdf (slide6)
c (x1), (x1 v x2 v ¬x3), (¬x1 v x3 v x4), (¬x1 v ¬x2), (¬x1 v ¬x2 v x3), (x3 v ¬x4 v x5), (¬x1 v x2 v x4)
p cnf 5 7
1 0
1 2 -3 0
-1 3 4 0
-1 -2 0
-1 -2 3 0
3 -4 5 0
-1 2 4 0
